NAME: concorde91
TYPE: TSP
DIMENSION: 25 
EDGE_WEIGHT_TYPE: EUC_2D
NODE_COORD_SECTION
1 68 100
2 41 30
3 67 14
4 91 52
5 41 84
6 15 92
7 38 35
8 47 33
9 24 84
10 11 45
11 0 70
12 65 91
13 5 2
14 13 47
15 97 41
16 26 34
17 0 66
18 100 88
19 65 8
20 73 33
21 72 94
22 83 92
23 14 69
24 68 38
25 85 0
